00
00
00
00
00
00
00
00
00
00
00
00
00
00
00
00
00
00
00
00
00
00
00
00
00
00
00
00
00
00
00
00
00
00
00
00
00
00
00
00
00
00
00
00
00
00
00
00
00
00
00
00
00
00
00
00
00
00
00
00
00
00
00
00
00
00
00
00
00
00
00
00
00
00
00
00
00
00
00
00
00
00
00
00
00
00
00
00
00
00
00
00
00
00
00
00
00
00
00
00
00
00
00
00
00
00
00
00
00
00
00
00
00
00
00
00
00
00
00
00
00
00
00
00
00
00
00
00
00
00
00
00
00
00
00
00
00
00
00
00
00
00
00
00
00
00
00
00
00
00
00
00
00
00
00
00
00
00
00
00
00
00
00
00
00
00
00
00
00
00
00
00
00
00
00
00
00
00
00
00
00
00
00
00
00
00
00
00
00
00
00
00
00
00
00
00
00
00
00
00
00
00
00
00
00
00
00
00
00
00
00
00
00
00
00
00
00
00
00
00
00
00
00
00
00
00
00
00
00
00
00
00
00
00
00
00
00
00
00
00
00
00
00
00
00
00
00
00
00
00
00
00
00
00
00
00
00
00
00
00
00
00
00
00
00
00
00
00
00
00
00
00
00
00
00
00
00
00
00
00
00
00
00
00
00
00
00
00
00
00
00
00
00
00
00
00
00
00
00
00
00
00
00
00
00
00
00
00
00
00
00
00
00
00
00
00
00
00
00
00
00
00
00
00
00
00
00
00
00
00
00
00
00
00
00
00
00
00
00
00
00
00
00
00
00
00
00
00
00
00
00
00
00
00
00
00
00
00
00
00
00
00
00
00
00
00
00
00
00
00
00
00
00
00
00
00
00
00
00
00
00
00
00
00
00
00
00
00
00
00
00
00
00
00
00
00
00
00
00
00
00
00
00
00
00
00
00
00
00
00
00
00
00
00
00
00
00
00
00
00
00
00
00
00
00
00
00
00
00
00
00
00
00
00
00
00
00
00
00
00
00
00
00
00
00
00
00
00
00
00
00
00
00
00
00
00
00
00
00
00
00
00
00
00
00
00
00
00
00
00
00
00
00
00
00
00
00
00
00
00
00
00
00
00
00
00
00
00
00
00
00
00
00
00
00
00
00
00
00
00
00
00
00
00
00
00
00
00
00
00
00
00
00
00
00
00
00
00
00
00
00
00
00
00
00
00
00
00
00
00
00
00
00
00
00
00
00
00
00
00
00
00
00
00
00
00
00
00
00
00
00
00
00
00
00
00
00
00
00
00
00
00
00
00
00
00
00
00
00
00
00
00
00
00
00
00
00
00
00
00
00
00
00
00
00
00
00
00
00
00
00
00
00
00
00
00
00
00
00
00
00
00
00
00
00
00
00
00
00
00
00
00
00
00
00
00
00
00
00
00
00
00
00
00
00
00
00
00
00
00
00
00
00
00
00
00
00
00
00
00
00
00
00
00
00
00
00
00
00
00
00
00
00
00
00
00
00
00
00
00
00
00
00
00
00
00
00
00
00
00
00
00
00
00
00
00
00
00
00
00
00
00
00
00
00
00
00
00
00
00
00
00
00
00
00
00
00
00
00
00
00
00
00
00
00
00
00
00
00
00
00
00
00
00
00
00
00
00
00
00
00
00
00
00
00
00
00
00
00
00
00
00
00
00
00
00
00
00
00
00
00
00
00
00
00
00
00
00
00
00
00
00
00
00
00
00
00
00
00
00
00
00
00
00
00
00
00
00
00
00
00
00
00
00
00
00
00
00
00
00
00
00
00
00
00
00
00
00
00
00
00
00
00
00
00
00
00
00
00
00
00
00
00
00
00
00
00
00
00
00
00
00
00
00
00
00
00
00
00
00
00
00
00
00
00
00
00
00
00
00
00
00
00
00
00
00
00
00
00
00
00
00
00
00
00
00
00
00
00
00
00
00
00
00
00
00
00
00
00
00
00
00
00
00
00
00
00
00
00
00
00
00
00
00
00
00
00
00
00
00
00
00
00
00
00
00
00
00
00
00
00
00
00
00
00
00
00
00
00
00
00
00
00
00
00
00
00
00
00
00
00
00
00
00
00
00
00
00
00
00
00
00
00
00
00
00
00
00
00
00
00
00
00
00
00
00
00
00
00
00
00
00
00
00
00
00
00
00
00
00
00
00
00
00
00
00
00
00
00
00
00
00
00
00
00
00
00
00
00
00
00
00
00
00
00
00
00
00
00
00
00
00
00
00
00
00
00
00
00
00
00
00
00
00
00
00
00
00
00
00
00
00
00
00
00
00
00
00
00
00
00
00
00
00
00
00
00
00
00
00
00
00
00
00
00
00
00
00
00
00
00
00
00
00
00
00
00
00
00
00
00
00
00
00
00
00
00
00
00
00
00
00
00
00
00
00
00
00
00
00
00
00
00
00
00
00
00
00
00
00
00
00
00
00
00
00
00
00
00
00
00
00
00
00
00
00
00
00
00
00
00
00
00
00
00
00
00
00
00
00
00
00
00
00
00
00
00
00
00
00
00
00
00
00
00
00
00
00
00
00
00
00
00
00
00
00
00
00
00
00
00
00
00
00
00
00
00
00
00
00
00
00
00
00
00
00
00
00
00
00
00
00
00
00
00
00
00
00
00
00
00
00
00
00
00
00
00
00
00
00
00
00
00
00
00
00
00
00
00
00
00
00
00
00
00
00
00
00
00
00
00
00
00
00
00
00
00
00
00
00
00
00
00
00
00
00
00
00
00
00
00
00
00
00
00
00
00
00
00
00
00
00
00
00
00
00
00
00
00
00
00
00
00
00
00
00
00
00
00
00
00
00
00
00
00
00
00
00
00
00
00
00
00
00
00
00
00
00
00
00
00
00
00
00
00
00
00
00
00
00
00
00
00
00
00
00
00
00
00
00
00
00
00
00
00
00
00
00
00
00
00
00
00
00
00
00
00
00
00
00
00
00
00
00
00
00
00
00
00
00
00
00
00
00
00
00
00
00
00
00
00
00
00
00
00
00
00
00
00
00
00
00
00
00
00
00
00
00
00
00
00
00
00
00
00
00
00
00
00
00
00
00
00
00
00
00
00
00
00
00
00
00
00
00
00
00
00
00
00
00
00
00
00
00
00
00
00
00
00
00
00
00
00
00
00
00
00
00
00
00
00
00
00
00
00
00
00
00
00
00
00
00
00
00
00
00
00
00
00
00
00
00
00
00
00
00
00
00
00
00
00
00
00
00
00
00
00
00
00
00
00
00
00
00
00
00
00
00
00
00
00
00
00
00
00
00
00
00
00
00
00
00
00
00
00
00
00
00
00
00
00
00
00
00
00
00
00
00
00
00
00
00
00
00
00
00
00
00
00
00
00
00
00
00
00
00
00
00
00
00
00
00
00
00
00
00
00
00
00
00
00
00
00
00
00
00
00
00
00
00
00
00
00
00
00
00
00
00
00
00
00
00
00
00
00
00
00
00
00
00
00
00
00
00
00
00
00
00
00
00
00
00
00
00
00
00
00
00
00
00
00
00
00
00
00
00
00
00
00
00
00
00
00
00
00
00
00
00
00
00
00
00
00
00
00
00
00
00
00
00
00
00
00
00
00
00
00
00
00
00
00
00
00
00
00
00
00
00
00
00
00
00
00
00
00
00
00
00
00
00
00
00
00
00
00
00
00
00
00
00
00
00
00
00
00
00
00
00
00
00
00
00
00
00
00
00
00
00
00
00
00
00
00
00
00
00
00
00
00
00
00
00
00
00
00
00
00
00
00
00
00
00
00
00
00
00
00
00
00
00
00
00
00
00
00
00
00
00
00
00
00
00
00
00
00
00
00
00
00
00
00
00
00
00
00
00
00
00
00
00
00
00
00
00
00
00
00
00
00
00
00
00
00
00
00
00
00
00
00
00
00
00
00
00
00
00
00
00
00
00
00
00
00
00
00
00
00
00
00
00
00
00
00
00
00
00
00
00
00
00
00
00
00
00
00
00
00
00
00
00
00
00
00
00
00
00
00
00
00
00
00
00
00
00
00
00
00
00
00
00
00
00
00
00
00
00
00
00
00
00
00
00
00
00
00
00
00
00
00
00
00
00
00
00
00
00
00
00
00
00
00
00
00
00
00
00
00
00
00
00
00
00
00
00
00
00
00
00
00
00
00
00
00
00
00
00
00
00
00
00
00
00
00
00
00
00
00
00
00
00
00
00
00
00
00
00
00
00
00
00
00
00
00
00
00
00
00
00
00
00
00
00
00
00
00
00
00
00
00
00
00
00
00
00
00
00
00
00
00
00
00
00
00
00
00
00
00
00
00
00
00
00
00
00
00
00
00
00
00
00
00
00
00
00
00
00
00
00
00
00
00
00
00
00
00
00
00
00
00
00
00
00
00
00
00
00
00
00
00
00
00
00
00
00
00
00
00
00
00
00
00
00
00
00
00
00
00
00
00
00
00
00
00
00
00
00
00
00
00
00
00
00
00
00
00
00
00
00
00
00
00
00
00
00
00
00
00
00
00
00
00
00
00
00
00
00
00
00
00
00
00
00
00
00
00
00
00
00
00
00
00
00
00
00
00
00
00
00
00
00
00
00
00
00
00
00
00
00
00
00
00
00
00
00
00
00
00
00
00
00
00
00
00
00
00
00
00
00
01
01
01
01
01
01
01
01
01
01
01
01
01
40
E2
2E
48
CF
67
F2
54
23
50
22
01
29
A7
7A
3D
BB
1D
AF
4D
5D
96
5E
43
D7
99
3C
8C
4D
AF
19
91
F1
F4
9D
FE
E4
EE
CA
98
DD
6F
DD
CD
CC
E5
57
AD
9D
89
79
F5
7B
B3
8E
F4
A9
42
85
A0
FB
E9
16
A4
86
69
53
EB
29
64
C5
1B
8D
52
38
01
22
50
AE
D2
F5
68
99
9C
43
5C
81
3F
50
01
DA
89
6D
CA
C0
B3
D0
F3
41
E4
B6
04
BD
E0
B9
83
41
AC
D0
E3
F7
0A
8C
51
CB
90
78
2F
AF
02
02
7E
B0
B8
7A
6B
EF
8C
28
9D
1E
49
0C
86
0A
77
A9
42
67
9B
08
F8
54
A4
21
F9
35
DA
B7
0F
F2
20
1A
73
14
22
0C
04
D5
ED
32
62
8C
78
77
A0
9A
37
6D
83
09
08
B8
BE
EF
0F
60
0F
B6
F8
83
FC
AB
E3
D8
50
C1
0F
47
CA
89
41
3E
44
C3
77
98
AD
DA
47
0D
50
1E
16
9B
F8
5D
BA
7D
02
4A
CD
42
58
BA
85
BE
73
B7
69
1A
39
18
73
AD
56
1E
BD
6E
2C
DB
C5
22
43
81
BE
4D
EE
38
43
29
05
BC
BC
05
64
C3
C3
64
79
F8
36
C7
73
11
8D
CC
28
1A
B0
2B
A4
4E
BD
06
42
1A
20
E8
73
45
DF
40
D8
E6
07
83
3C
3D
15
15
3D
C0
C7
C7
C0
96
11
29
6D
62
6D
CB
F0
58
82
3C
1A
1E
3B
E7
E0
4F
5B
73
0B
27
ED
D9
07
73
FA
83
C4
4B
1A
80
06
A9
96
D3
5C
06
1B
4F
E5
6A
71
D5
88
DA
31
1F
2B
4A
D4
1A
82
7B
A7
3B
73
BA
92
A2
73
FD
87
1A
A8
11
17
09
70
73
22
34
72
B6
DC
2D
3E
14
73
92
07
3C
22
A9
EA
1A
69
1A
F1
07
6F
02
73
2B
DB
0B
BE
A6
56
39
E0
7D
75
8F
78
D1
68
04
18
ED
D3
A1
4B
44
44
4B
31
DD
A2
88
E4
A7
6F
26
1C
1C
26
3F
37
AC
5C
3A
C2
D1
45
D0
D5
D7
12
15
7F
46
7D
ED
2A
5F
1F
27
1D
F3
BF
96
7A
3A
59
10
53
6B
02
F7
03
EE
F5
D2
8F
A6
BB
AB
01
0C
06
04
01
AB
BB
A6
8F
D2
F5
EE
04
06
AB
01
A6
BB
D2
8F
EE
F5
0C
BB
A6
01
AB
F5
EE
8F
D2
A6
BB
AB
01
EE
F5
D2
8F
0C
06
04
03
F7
02
6B
04
06
F7
03
6B
02
0C
02
6B
03
F7
6B
02
F7
03
0C
06
04
04
06
0C
0E
F3
05
99
67
C7
7B
52
AE
39
76
A2
89
CF
DC
B0
46
C4
72
8A
28
0F
AA
42
9C
54
11
FF
70
4F
B4
26
F2
AC
FC
68
8B
22
F9
6F
8A
A4
D0
4B
D1
4A
CF
22
E4
80
78
83
33
EF
E0
50
51
B8
72
44
B7
DD
F0
96
88
0D
08
0A
70
DA
E8
F5
01
5C
B4
AF
14
68
B1
D2
BC
7B
AA
01
96
F5
9B
8B
52
2C
BB
9C
4D
D1
D6
55
45
6B
F7
A7
6F
F1
F6
B8
B9
EC
FF
8D
41
02
43
03
D0
51
9A
DA
04
C5
F3
29
52
1E
60
63
C4
70
A6
F8
99
81
39
35
34
8F
B4
46
88
3C
0B
A2
06
02
8C
C1
9E
37
05
51
AF
85
50
0A
F7
E4
2F
60
B9
CA
75
78
86
5E
A0
9F
F0
FD
D2
CF
39
93
82
99
BB
E6
AE
04
76
F6
2F
03
AC
F3
4D
33
ED
D0
9E
9A
A4
E3
8C
1F
F7
B6
02
D1
93
05
21
06
BF
63
61
96
07
58
02
B9
37
E4
8A
19
8C
54
44
09
9B
D0
6B
78
C1
03
25
66
0A
D6
88
6F
CC
85
10
12
F1
05
D6
BF
24
07
BD
06
21
06
06
F3
6E
14
0C
63
08
DC
A5
36
55
D5
BD
A0
F3
89
6F
88
11
67
FD
B1
0D
1A
04
6D
04
F0
73
0A
5D
0C
FD
E7
1E
08
0D
FB
85
17
18
1A
34
2E
08
F1
06
2C
2E
43
01
28
2A
70
C3
55
05
63
A6
8A
5C
FE
68
26
52
0A
99
73
26
48
20
CC
6C
F5
82
9C
19
46
CA
D2
60
C8
FB
D4
05
50
B9
90
02
98
89
40
D0
A0
F6
0F
60
7E
D8
A4
1F
6B
E0
8D
67
AD
F1
3D
07
0E
0E
0C
93
39
CF
D2
E6
BB
99
82
18
8F
34
35
39
3C
88
46
B4
52
8B
9B
F5
4D
9C
BB
2C
31
BE
F3
66
25
03
C1
D4
04
78
6B
D0
9B
08
44
54
8C
19
37
B9
02
58
B1
05
2B
06
B0
7D
14
70
C4
63
60
81
99
F8
A6
BC
D2
B1
68
96
01
AA
7B
08
57
BD
D1
02
B6
F7
91
6D
1F
8C
E3
A4
DA
9E
D0
ED
33
AC
03
2F
F6
0A
C7
55
71
F1
FF
F5
E8
DA
70
AF
B4
5C
01
59
8B
DD
78
75
CA
B9
F2
3D
60
2F
E4
F7
7A
50
85
AF
51
9E
C1
8C
02
BC
43
F3
89
04
08
B1
E6
06
9A
51
D0
03
4F
05
43
02
41
8D
0A
EC
B9
B8
F6
A7
F7
6B
45
08
6D
07
BD
8A
09
16
14
F0
04
6D
04
28
88
6F
89
F3
6E
F3
06
06
10
0F
08
0A
0C
18
3C
A0
BD
D5
55
21
06
BD
07
14
B7
FF
DA
0E
1C
BF
D6
05
F1
CE
86
AA
0F
FF
E3
18
0A
0E
0C
09
12
1E
1C
38
24
AA
0F
DC
B1
06
8F
30
F9
CF
13
1E
5B
94
89
93
38
FB
48
AF
C3
E5
AD
C8
13
3F
40
DE
1F
11
07
6C
7E
E0
EC
1E
8A
70
EF
C0
35
09
48
5A
90
26
50
41
4B
A1
9B
3D
6A
DD
5F
BE
11
26
7C
07
6C
CB
0E
35
30
42
CF
76
65
8C
5C
89
36
AE
12
89
60
B8
4C
50
1C
43
8B
96
86
48
86
40
16
6A
70
E1
E4
83
6C
62
D4
90
98
D8
AD
EE
07
E5
7E
45
AA
50
3C
2A
98
E5
70
49
D8
9E
1B
19
39
1C
F0
50
32
AB
10
B4
60
40
E3
90
78
70
75
A0
AD
F0
FD
2D
64
CF
26
6B
C0
44
B3
26
8A
B8
3E
5A
4C
CF
41
A0
6C
89
D0
80
77
DA
5D
B4
9D
EE
C1
5A
98
E0
6D
5D
F0
2D
90
82
AD
A0
A0
BD
DD
88
A9
47
FD
7A
0D
1A
B5
4B
2C
FD
90
80
D5
9D
B4
C4
E7
AD
BA
75
EA
C0
C3
3D
D8
B0
EA
3D
47
AD
47
73
7A
75
A7
C1
9F
8E
EA
C9
23
3C
48
DE
8A
AB
28
FF
5B
CA
E2
19
4D
01
76
68
CC
94
9E
1B
04
44
D0
2F
43
12
06
50
E4
49
26
0C
78
EF
B6
CF
D1
B8
C1
35
B7
71
4C
5E
6A
D4
01
4D
19
E2
94
CC
68
76
E1
D4
AF
5A
85
8C
31
98
76
48
E3
B8
43
EC
6C
EB
CA
89
78
49
03
EC
AB
89
86
05
C5
97
AC
56
F1
7F
B9
6B
9A
64
07
35
D0
7E
A1
0E
A1
7E
D0
35
9A
6B
B9
7F
67
BD
5F
D6
FE
E1
77
1C
B4
BD
BD
C5
38
EE
FC
05
86
CC
D6
04
29
CE
0A
97
0C
52
A4
24
D8
C3
6D
4C
F0
6D
D6
5F
73
DA
D4
67
BE
61
88
82
06
6A
2B
0F
98
0A
D4
B5
A9
0C
BE
08
E1
DF
14
61
C2
A3
AB
8A
DE
48
CA
5B
FF
28
3F
91
3D
50
B6
ED
1F
15
AD
40
15
1C
60
47
60
1C
15
40
1F
ED
B6
50
54
2A
C0
C7
A0
5D
B5
FE
05
EC
03
49
78
5F
89
89
CA
EB
6C
0F
43
B8
E3
48
31
8C
85
5A
0F
DB
D8
92
B4
75
7E
1E
A0
89
DB
A0
3C
F0
6D
C7
C0
BF
05
5E
F0
1E
93
5D
E2
FD
E7
22
C0
31
38
E0
3E
43
92
D8
97
70
3D
AB
AD
47
21
D5
71
90
C4
54
DD
93
3D
7A
11
E2
AD
BC
75
EA
3B
47
8E
C9
36
4F
4D
35
C1
B8
D1
81
E5
CF
B6
EF
78
D7
26
49
E4
50
43
2F
D0
44
E2
D5
F0
6D
88
0D
EF
B3
90
71
D5
21
7B
D8
92
43
3E
F0
5E
05
BF
D9
86
42
0F
63
C6
C8
E0
38
31
C0
C0
C7
6D
F0
A8
62
5D
B7
FD
E7
A0
DB
89
A0
E0
C5
9D
86
5D
BA
3B
0F
FD
0A
0D
1A
11
E7
D3
34
21
1B
6A
06
82
88
36
5F
D6
6D
F0
29
04
D6
CC
18
DA
0D
67
85
17
2D
4C
6D
C3
D8
86
05
FC
EE
1E
9B
75
19
C1
9F
C5
BD
BD
B4
A9
B7
AD
DA
75
EA
14
67
C1
B1
2F
5E
A9
9F
23
BC
B4
AD
DA
B7
5D
FD
0A
67
0D
3C
73
E7
A9
1A
34
0D
67
0A
FD
4F
11
BA
1E
E7
D3
28
14
1A
18
17
2E
3C
34
68
5C
5D
B7
DA
AD
95
C4
7A
73
47
8E
22
A9
EA
CE
9F
23
E6
C9
8F
46
E6
1E
47
14
EA
C9
22
8E
01
8F
28
23
46
65
8C

